50
84
26
33
132
77
38
60
67
97
148
195
112
78
64
196
132
80
146
146
101
107
77
56
57
111
81
40
144
61
57
98
54
86
0
84
64
106
101
54
113
0
57
44
0
53
88
56
45
71
69
24
0
32
67
100
56
69
51
73
151
40
94
79
68
92
39
28
48
55
24
53
141
0
74
69
96
71
101
33
124
94
47
131
43
171
23
23
121
52
26
37
124
42
107
127
61
0
121
110
